(set-info :smt-lib-version 2.6)
(set-info :category "crafted")
(set-logic QF_FF)
(define-sort FF0 () (_ FiniteField 52435875175126190479447740508185965837690552500527637822603658699938581184513))
(declare-fun out_alt () FF0)
(declare-fun _68_alt () FF0)
(declare-fun _67_alt () FF0)
(declare-fun _10_alt () FF0)
(declare-fun _66_alt () FF0)
(declare-fun _11_alt () FF0)
(declare-fun _65_alt () FF0)
(declare-fun _41_alt () FF0)
(declare-fun _64_alt () FF0)
(declare-fun _42_alt () FF0)
(declare-fun _63_alt () FF0)
(declare-fun _0_alt () FF0)
(declare-fun _62_alt () FF0)
(declare-fun _54_alt () FF0)
(declare-fun _9_alt () FF0)
(declare-fun _61_alt () FF0)
(declare-fun _3_alt () FF0)
(declare-fun _60_alt () FF0)
(declare-fun _5_alt () FF0)
(declare-fun _59_alt () FF0)
(declare-fun _4_alt () FF0)
(declare-fun _58_alt () FF0)
(declare-fun _57_alt () FF0)
(declare-fun _8_alt () FF0)
(declare-fun _56_alt () FF0)
(declare-fun _7_alt () FF0)
(declare-fun _55_alt () FF0)
(declare-fun _1_alt () FF0)
(declare-fun _30_alt () FF0)
(declare-fun _45_alt () FF0)
(declare-fun _53_alt () FF0)
(declare-fun _52_alt () FF0)
(declare-fun _51_alt () FF0)
(declare-fun _33_alt () FF0)
(declare-fun _50_alt () FF0)
(declare-fun _49_alt () FF0)
(declare-fun _48_alt () FF0)
(declare-fun _6_alt () FF0)
(declare-fun _39_alt () FF0)
(declare-fun _38_alt () FF0)
(declare-fun _2_alt () FF0)
(declare-fun _32_alt () FF0)
(declare-fun _31_alt () FF0)
(declare-fun _29_alt () FF0)
(declare-fun _28_alt () FF0)
(declare-fun _27_alt () FF0)
(declare-fun _26_alt () FF0)
(declare-fun _25_alt () FF0)
(declare-fun _24_alt () FF0)
(declare-fun _23_alt () FF0)
(declare-fun _22_alt () FF0)
(declare-fun _21_alt () FF0)
(declare-fun _20_alt () FF0)
(declare-fun _19_alt () FF0)
(declare-fun _18_alt () FF0)
(declare-fun _17_alt () FF0)
(declare-fun _16_alt () FF0)
(declare-fun _15_alt () FF0)
(declare-fun _14_alt () FF0)
(declare-fun _13_alt () FF0)
(declare-fun out () FF0)
(declare-fun _68 () FF0)
(declare-fun _67 () FF0)
(declare-fun _10 () FF0)
(declare-fun _66 () FF0)
(declare-fun _11 () FF0)
(declare-fun _65 () FF0)
(declare-fun _41 () FF0)
(declare-fun _64 () FF0)
(declare-fun _42 () FF0)
(declare-fun _63 () FF0)
(declare-fun _0 () FF0)
(declare-fun _62 () FF0)
(declare-fun _54 () FF0)
(declare-fun _9 () FF0)
(declare-fun _61 () FF0)
(declare-fun _3 () FF0)
(declare-fun _60 () FF0)
(declare-fun _5 () FF0)
(declare-fun _59 () FF0)
(declare-fun _4 () FF0)
(declare-fun _58 () FF0)
(declare-fun _57 () FF0)
(declare-fun _8 () FF0)
(declare-fun _56 () FF0)
(declare-fun _7 () FF0)
(declare-fun _55 () FF0)
(declare-fun _1 () FF0)
(declare-fun _30 () FF0)
(declare-fun _45 () FF0)
(declare-fun _53 () FF0)
(declare-fun _52 () FF0)
(declare-fun _51 () FF0)
(declare-fun _33 () FF0)
(declare-fun _50 () FF0)
(declare-fun _49 () FF0)
(declare-fun _48 () FF0)
(declare-fun _6 () FF0)
(declare-fun _39 () FF0)
(declare-fun _38 () FF0)
(declare-fun _2 () FF0)
(declare-fun _32 () FF0)
(declare-fun _31 () FF0)
(declare-fun _29 () FF0)
(declare-fun _28 () FF0)
(declare-fun _27 () FF0)
(declare-fun _26 () FF0)
(declare-fun _25 () FF0)
(declare-fun _24 () FF0)
(declare-fun _23 () FF0)
(declare-fun _22 () FF0)
(declare-fun _21 () FF0)
(declare-fun _20 () FF0)
(declare-fun _19 () FF0)
(declare-fun _18 () FF0)
(declare-fun _17 () FF0)
(declare-fun _16 () FF0)
(declare-fun _15 () FF0)
(declare-fun _14 () FF0)
(declare-fun _13 () FF0)
(assert 
  (let ((let0 out_alt))
  (let ((let1 _68_alt))
  (let ((let2 (= let1 let0)))
  (let ((let3 (as ff52435875175126190479447740508185965837690552500527637822603658699938581184512 FF0)))
  (let ((let4 (ff.mul let1 let3)))
  (let ((let5 _67_alt))
  (let ((let6 _10_alt))
  (let ((let7 (ff.add let6 let5 let4)))
  (let ((let8 (ff.mul let5 let6)))
  (let ((let9 (= let8 let7)))
  (let ((let10 (as ff1 FF0)))
  (let ((let11 (ff.mul let5 let3)))
  (let ((let12 _66_alt))
  (let ((let13 _11_alt))
  (let ((let14 (ff.mul let13 let3)))
  (let ((let15 (ff.add let14 let12 let11 let10)))
  (let ((let16 (ff.add let14 let10)))
  (let ((let17 (ff.mul let12 let16)))
  (let ((let18 (= let17 let15)))
  (let ((let19 (ff.mul let12 let3)))
  (let ((let20 _65_alt))
  (let ((let21 _41_alt))
  (let ((let22 (ff.add let21 let20 let19)))
  (let ((let23 (ff.mul let20 let21)))
  (let ((let24 (= let23 let22)))
  (let ((let25 (ff.mul let20 let3)))
  (let ((let26 _64_alt))
  (let ((let27 _42_alt))
  (let ((let28 (ff.mul let27 let3)))
  (let ((let29 (ff.add let28 let26 let25 let10)))
  (let ((let30 (ff.add let28 let10)))
  (let ((let31 (ff.mul let26 let30)))
  (let ((let32 (= let31 let29)))
  (let ((let33 (ff.mul let26 let3)))
  (let ((let34 _63_alt))
  (let ((let35 _0_alt))
  (let ((let36 (ff.mul let35 let3)))
  (let ((let37 (ff.add let36 let34 let33 let10)))
  (let ((let38 (ff.add let36 let10)))
  (let ((let39 (ff.mul let34 let38)))
  (let ((let40 (= let39 let37)))
  (let ((let41 (ff.mul let34 let3)))
  (let ((let42 _62_alt))
  (let ((let43 _54_alt))
  (let ((let44 (ff.add let43 let42 let41)))
  (let ((let45 (ff.mul let42 let43)))
  (let ((let46 (= let45 let44)))
  (let ((let47 _9_alt))
  (let ((let48 _61_alt))
  (let ((let49 (ff.mul let48 let47)))
  (let ((let50 (= let49 let42)))
  (let ((let51 _3_alt))
  (let ((let52 _60_alt))
  (let ((let53 (ff.mul let52 let51)))
  (let ((let54 (= let53 let48)))
  (let ((let55 _5_alt))
  (let ((let56 _59_alt))
  (let ((let57 (ff.mul let56 let55)))
  (let ((let58 (= let57 let52)))
  (let ((let59 _4_alt))
  (let ((let60 _58_alt))
  (let ((let61 (ff.mul let60 let59)))
  (let ((let62 (= let61 let56)))
  (let ((let63 _57_alt))
  (let ((let64 (ff.mul let63 let47)))
  (let ((let65 (= let64 let60)))
  (let ((let66 _8_alt))
  (let ((let67 _56_alt))
  (let ((let68 (ff.mul let67 let66)))
  (let ((let69 (= let68 let63)))
  (let ((let70 _7_alt))
  (let ((let71 _55_alt))
  (let ((let72 (ff.mul let71 let70)))
  (let ((let73 (= let72 let67)))
  (let ((let74 _1_alt))
  (let ((let75 _30_alt))
  (let ((let76 (ff.mul let75 let74)))
  (let ((let77 (= let76 let71)))
  (let ((let78 _45_alt))
  (let ((let79 (ff.mul let78 let3)))
  (let ((let80 (ff.add let79 let10)))
  (let ((let81 _53_alt))
  (let ((let82 (ff.mul let81 let80)))
  (let ((let83 (= let82 let43)))
  (let ((let84 _52_alt))
  (let ((let85 (ff.mul let84 let80)))
  (let ((let86 (= let85 let81)))
  (let ((let87 _51_alt))
  (let ((let88 (ff.mul let87 let59)))
  (let ((let89 (= let88 let84)))
  (let ((let90 _33_alt))
  (let ((let91 _50_alt))
  (let ((let92 (ff.mul let91 let90)))
  (let ((let93 (= let92 let87)))
  (let ((let94 _49_alt))
  (let ((let95 (ff.mul let94 let35)))
  (let ((let96 (= let95 let91)))
  (let ((let97 _48_alt))
  (let ((let98 (ff.mul let97 let55)))
  (let ((let99 (= let98 let94)))
  (let ((let100 _6_alt))
  (let ((let101 (ff.mul let100 let55)))
  (let ((let102 (= let101 let97)))
  (let ((let103 (ff.mul let75 let3)))
  (let ((let104 (ff.add let70 let103)))
  (let ((let105 (ff.mul let104 let104)))
  (let ((let106 (= let105 let78)))
  (let ((let107 (ff.mul let66 let74)))
  (let ((let108 (= let107 let27)))
  (let ((let109 (ff.mul let21 let3)))
  (let ((let110 _39_alt))
  (let ((let111 (ff.mul let110 let3)))
  (let ((let112 _38_alt))
  (let ((let113 (ff.mul let112 let3)))
  (let ((let114 (ff.add let90 let113 let111 let109 let10)))
  (let ((let115 (ff.add let113 let111 let10)))
  (let ((let116 (ff.mul let115 let90)))
  (let ((let117 (= let116 let114)))
  (let ((let118 _2_alt))
  (let ((let119 (ff.mul let118 let3)))
  (let ((let120 (ff.add let119 let10)))
  (let ((let121 (ff.mul let120 let90)))
  (let ((let122 (= let121 let110)))
  (let ((let123 (ff.mul let55 let3)))
  (let ((let124 (ff.add let123 let10)))
  (let ((let125 (ff.mul let118 let124)))
  (let ((let126 (= let125 let112)))
  (let ((let127 _32_alt))
  (let ((let128 (ff.mul let127 let100)))
  (let ((let129 (= let128 let90)))
  (let ((let130 _31_alt))
  (let ((let131 (ff.mul let130 let130)))
  (let ((let132 (= let131 let127)))
  (let ((let133 (ff.mul let130 let3)))
  (let ((let134 (ff.add let51 let75 let133)))
  (let ((let135 (ff.mul let75 let51)))
  (let ((let136 (= let135 let134)))
  (let ((let137 _29_alt))
  (let ((let138 (ff.mul let137 let3)))
  (let ((let139 _28_alt))
  (let ((let140 (ff.add let35 let139 let138)))
  (let ((let141 (ff.mul let139 let35)))
  (let ((let142 (= let141 let140)))
  (let ((let143 (ff.mul let139 let3)))
  (let ((let144 _27_alt))
  (let ((let145 (ff.add let66 let144 let143)))
  (let ((let146 (ff.mul let144 let66)))
  (let ((let147 (= let146 let145)))
  (let ((let148 (ff.mul let144 let3)))
  (let ((let149 _26_alt))
  (let ((let150 (ff.add let59 let149 let148)))
  (let ((let151 (ff.mul let149 let59)))
  (let ((let152 (= let151 let150)))
  (let ((let153 (ff.mul let149 let3)))
  (let ((let154 _25_alt))
  (let ((let155 (ff.add let55 let154 let153)))
  (let ((let156 (ff.mul let154 let55)))
  (let ((let157 (= let156 let155)))
  (let ((let158 (ff.mul let154 let3)))
  (let ((let159 _24_alt))
  (let ((let160 (ff.add let74 let159 let158)))
  (let ((let161 (ff.mul let159 let74)))
  (let ((let162 (= let161 let160)))
  (let ((let163 (ff.mul let159 let3)))
  (let ((let164 _23_alt))
  (let ((let165 (ff.add let51 let164 let163)))
  (let ((let166 (ff.mul let164 let51)))
  (let ((let167 (= let166 let165)))
  (let ((let168 (ff.mul let164 let3)))
  (let ((let169 _22_alt))
  (let ((let170 (ff.add let100 let169 let168)))
  (let ((let171 (ff.mul let169 let100)))
  (let ((let172 (= let171 let170)))
  (let ((let173 (ff.mul let169 let3)))
  (let ((let174 _21_alt))
  (let ((let175 (ff.add let35 let174 let173)))
  (let ((let176 (ff.mul let174 let35)))
  (let ((let177 (= let176 let175)))
  (let ((let178 (ff.mul let174 let3)))
  (let ((let179 _20_alt))
  (let ((let180 (ff.add let118 let179 let178)))
  (let ((let181 (ff.mul let179 let118)))
  (let ((let182 (= let181 let180)))
  (let ((let183 (ff.mul let179 let3)))
  (let ((let184 _19_alt))
  (let ((let185 (ff.add let100 let184 let183)))
  (let ((let186 (ff.mul let184 let100)))
  (let ((let187 (= let186 let185)))
  (let ((let188 (ff.mul let184 let3)))
  (let ((let189 _18_alt))
  (let ((let190 (ff.add let59 let189 let188)))
  (let ((let191 (ff.mul let189 let59)))
  (let ((let192 (= let191 let190)))
  (let ((let193 (ff.mul let189 let3)))
  (let ((let194 _17_alt))
  (let ((let195 (ff.add let47 let194 let193)))
  (let ((let196 (ff.mul let194 let47)))
  (let ((let197 (= let196 let195)))
  (let ((let198 (ff.mul let194 let3)))
  (let ((let199 _16_alt))
  (let ((let200 (ff.add let118 let199 let198)))
  (let ((let201 (ff.mul let199 let118)))
  (let ((let202 (= let201 let200)))
  (let ((let203 (ff.mul let199 let3)))
  (let ((let204 _15_alt))
  (let ((let205 (ff.add let70 let204 let203)))
  (let ((let206 (ff.mul let204 let70)))
  (let ((let207 (= let206 let205)))
  (let ((let208 (ff.mul let204 let3)))
  (let ((let209 _14_alt))
  (let ((let210 (ff.add let51 let209 let208)))
  (let ((let211 (ff.mul let209 let51)))
  (let ((let212 (= let211 let210)))
  (let ((let213 (ff.mul let209 let3)))
  (let ((let214 _13_alt))
  (let ((let215 (ff.add let66 let214 let213)))
  (let ((let216 (ff.mul let214 let66)))
  (let ((let217 (= let216 let215)))
  (let ((let218 (ff.mul let214 let3)))
  (let ((let219 (ff.add let35 let74 let218)))
  (let ((let220 (ff.mul let74 let35)))
  (let ((let221 (= let220 let219)))
  (let ((let222 (ff.add let123 let70)))
  (let ((let223 (ff.mul let222 let222)))
  (let ((let224 (= let223 let13)))
  (let ((let225 (ff.mul let51 let47)))
  (let ((let226 (= let225 let6)))
  (let ((let227 (ff.mul let47 let47)))
  (let ((let228 (= let227 let47)))
  (let ((let229 (ff.mul let66 let66)))
  (let ((let230 (= let229 let66)))
  (let ((let231 (ff.mul let70 let70)))
  (let ((let232 (= let231 let70)))
  (let ((let233 (ff.mul let100 let100)))
  (let ((let234 (= let233 let100)))
  (let ((let235 (ff.mul let55 let55)))
  (let ((let236 (= let235 let55)))
  (let ((let237 (ff.mul let59 let59)))
  (let ((let238 (= let237 let59)))
  (let ((let239 (ff.mul let51 let51)))
  (let ((let240 (= let239 let51)))
  (let ((let241 (ff.mul let118 let118)))
  (let ((let242 (= let241 let118)))
  (let ((let243 (ff.mul let74 let74)))
  (let ((let244 (= let243 let74)))
  (let ((let245 (ff.mul let35 let35)))
  (let ((let246 (= let245 let35)))
  (let ((let247 (and let246 let244 let242 let240 let238 let236 let234 let232 let230 let228 let226 let224 let221 let217 let212 let207 let202 let197 let192 let187 let182 let177 let172 let167 let162 let157 let152 let147 let142 let136 let132 let129 let126 let122 let117 let108 let106 let102 let99 let96 let93 let89 let86 let83 let77 let73 let69 let65 let62 let58 let54 let50 let46 let40 let32 let24 let18 let9 let2)))
  (let ((let248 out))
  (let ((let249 _68))
  (let ((let250 (= let249 let248)))
  (let ((let251 (ff.mul let249 let3)))
  (let ((let252 _67))
  (let ((let253 _10))
  (let ((let254 (ff.add let253 let252 let251)))
  (let ((let255 (ff.mul let252 let253)))
  (let ((let256 (= let255 let254)))
  (let ((let257 (ff.mul let252 let3)))
  (let ((let258 _66))
  (let ((let259 _11))
  (let ((let260 (ff.mul let259 let3)))
  (let ((let261 (ff.add let260 let258 let257 let10)))
  (let ((let262 (ff.add let260 let10)))
  (let ((let263 (ff.mul let258 let262)))
  (let ((let264 (= let263 let261)))
  (let ((let265 (ff.mul let258 let3)))
  (let ((let266 _65))
  (let ((let267 _41))
  (let ((let268 (ff.add let267 let266 let265)))
  (let ((let269 (ff.mul let266 let267)))
  (let ((let270 (= let269 let268)))
  (let ((let271 (ff.mul let266 let3)))
  (let ((let272 _64))
  (let ((let273 _42))
  (let ((let274 (ff.mul let273 let3)))
  (let ((let275 (ff.add let274 let272 let271 let10)))
  (let ((let276 (ff.add let274 let10)))
  (let ((let277 (ff.mul let272 let276)))
  (let ((let278 (= let277 let275)))
  (let ((let279 (ff.mul let272 let3)))
  (let ((let280 _63))
  (let ((let281 _0))
  (let ((let282 (ff.mul let281 let3)))
  (let ((let283 (ff.add let282 let280 let279 let10)))
  (let ((let284 (ff.add let282 let10)))
  (let ((let285 (ff.mul let280 let284)))
  (let ((let286 (= let285 let283)))
  (let ((let287 (ff.mul let280 let3)))
  (let ((let288 _62))
  (let ((let289 _54))
  (let ((let290 (ff.add let289 let288 let287)))
  (let ((let291 (ff.mul let288 let289)))
  (let ((let292 (= let291 let290)))
  (let ((let293 _9))
  (let ((let294 _61))
  (let ((let295 (ff.mul let294 let293)))
  (let ((let296 (= let295 let288)))
  (let ((let297 _3))
  (let ((let298 _60))
  (let ((let299 (ff.mul let298 let297)))
  (let ((let300 (= let299 let294)))
  (let ((let301 _5))
  (let ((let302 _59))
  (let ((let303 (ff.mul let302 let301)))
  (let ((let304 (= let303 let298)))
  (let ((let305 _4))
  (let ((let306 _58))
  (let ((let307 (ff.mul let306 let305)))
  (let ((let308 (= let307 let302)))
  (let ((let309 _57))
  (let ((let310 (ff.mul let309 let293)))
  (let ((let311 (= let310 let306)))
  (let ((let312 _8))
  (let ((let313 _56))
  (let ((let314 (ff.mul let313 let312)))
  (let ((let315 (= let314 let309)))
  (let ((let316 _7))
  (let ((let317 _55))
  (let ((let318 (ff.mul let317 let316)))
  (let ((let319 (= let318 let313)))
  (let ((let320 _1))
  (let ((let321 _30))
  (let ((let322 (ff.mul let321 let320)))
  (let ((let323 (= let322 let317)))
  (let ((let324 _45))
  (let ((let325 (ff.mul let324 let3)))
  (let ((let326 (ff.add let325 let10)))
  (let ((let327 _53))
  (let ((let328 (ff.mul let327 let326)))
  (let ((let329 (= let328 let289)))
  (let ((let330 _52))
  (let ((let331 (ff.mul let330 let326)))
  (let ((let332 (= let331 let327)))
  (let ((let333 _51))
  (let ((let334 (ff.mul let333 let305)))
  (let ((let335 (= let334 let330)))
  (let ((let336 _33))
  (let ((let337 _50))
  (let ((let338 (ff.mul let337 let336)))
  (let ((let339 (= let338 let333)))
  (let ((let340 _49))
  (let ((let341 (ff.mul let340 let281)))
  (let ((let342 (= let341 let337)))
  (let ((let343 _48))
  (let ((let344 (ff.mul let343 let301)))
  (let ((let345 (= let344 let340)))
  (let ((let346 _6))
  (let ((let347 (ff.mul let346 let301)))
  (let ((let348 (= let347 let343)))
  (let ((let349 (ff.mul let321 let3)))
  (let ((let350 (ff.add let316 let349)))
  (let ((let351 (ff.mul let350 let350)))
  (let ((let352 (= let351 let324)))
  (let ((let353 (ff.mul let312 let320)))
  (let ((let354 (= let353 let273)))
  (let ((let355 (ff.mul let267 let3)))
  (let ((let356 _39))
  (let ((let357 (ff.mul let356 let3)))
  (let ((let358 _38))
  (let ((let359 (ff.mul let358 let3)))
  (let ((let360 (ff.add let336 let359 let357 let355 let10)))
  (let ((let361 (ff.add let359 let357 let10)))
  (let ((let362 (ff.mul let361 let336)))
  (let ((let363 (= let362 let360)))
  (let ((let364 _2))
  (let ((let365 (ff.mul let364 let3)))
  (let ((let366 (ff.add let365 let10)))
  (let ((let367 (ff.mul let366 let336)))
  (let ((let368 (= let367 let356)))
  (let ((let369 (ff.mul let301 let3)))
  (let ((let370 (ff.add let369 let10)))
  (let ((let371 (ff.mul let364 let370)))
  (let ((let372 (= let371 let358)))
  (let ((let373 _32))
  (let ((let374 (ff.mul let373 let346)))
  (let ((let375 (= let374 let336)))
  (let ((let376 _31))
  (let ((let377 (ff.mul let376 let376)))
  (let ((let378 (= let377 let373)))
  (let ((let379 (ff.mul let376 let3)))
  (let ((let380 (ff.add let297 let321 let379)))
  (let ((let381 (ff.mul let321 let297)))
  (let ((let382 (= let381 let380)))
  (let ((let383 _29))
  (let ((let384 (ff.mul let383 let3)))
  (let ((let385 _28))
  (let ((let386 (ff.add let281 let385 let384)))
  (let ((let387 (ff.mul let385 let281)))
  (let ((let388 (= let387 let386)))
  (let ((let389 (ff.mul let385 let3)))
  (let ((let390 _27))
  (let ((let391 (ff.add let312 let390 let389)))
  (let ((let392 (ff.mul let390 let312)))
  (let ((let393 (= let392 let391)))
  (let ((let394 (ff.mul let390 let3)))
  (let ((let395 _26))
  (let ((let396 (ff.add let305 let395 let394)))
  (let ((let397 (ff.mul let395 let305)))
  (let ((let398 (= let397 let396)))
  (let ((let399 (ff.mul let395 let3)))
  (let ((let400 _25))
  (let ((let401 (ff.add let301 let400 let399)))
  (let ((let402 (ff.mul let400 let301)))
  (let ((let403 (= let402 let401)))
  (let ((let404 (ff.mul let400 let3)))
  (let ((let405 _24))
  (let ((let406 (ff.add let320 let405 let404)))
  (let ((let407 (ff.mul let405 let320)))
  (let ((let408 (= let407 let406)))
  (let ((let409 (ff.mul let405 let3)))
  (let ((let410 _23))
  (let ((let411 (ff.add let297 let410 let409)))
  (let ((let412 (ff.mul let410 let297)))
  (let ((let413 (= let412 let411)))
  (let ((let414 (ff.mul let410 let3)))
  (let ((let415 _22))
  (let ((let416 (ff.add let346 let415 let414)))
  (let ((let417 (ff.mul let415 let346)))
  (let ((let418 (= let417 let416)))
  (let ((let419 (ff.mul let415 let3)))
  (let ((let420 _21))
  (let ((let421 (ff.add let281 let420 let419)))
  (let ((let422 (ff.mul let420 let281)))
  (let ((let423 (= let422 let421)))
  (let ((let424 (ff.mul let420 let3)))
  (let ((let425 _20))
  (let ((let426 (ff.add let364 let425 let424)))
  (let ((let427 (ff.mul let425 let364)))
  (let ((let428 (= let427 let426)))
  (let ((let429 (ff.mul let425 let3)))
  (let ((let430 _19))
  (let ((let431 (ff.add let346 let430 let429)))
  (let ((let432 (ff.mul let430 let346)))
  (let ((let433 (= let432 let431)))
  (let ((let434 (ff.mul let430 let3)))
  (let ((let435 _18))
  (let ((let436 (ff.add let305 let435 let434)))
  (let ((let437 (ff.mul let435 let305)))
  (let ((let438 (= let437 let436)))
  (let ((let439 (ff.mul let435 let3)))
  (let ((let440 _17))
  (let ((let441 (ff.add let293 let440 let439)))
  (let ((let442 (ff.mul let440 let293)))
  (let ((let443 (= let442 let441)))
  (let ((let444 (ff.mul let440 let3)))
  (let ((let445 _16))
  (let ((let446 (ff.add let364 let445 let444)))
  (let ((let447 (ff.mul let445 let364)))
  (let ((let448 (= let447 let446)))
  (let ((let449 (ff.mul let445 let3)))
  (let ((let450 _15))
  (let ((let451 (ff.add let316 let450 let449)))
  (let ((let452 (ff.mul let450 let316)))
  (let ((let453 (= let452 let451)))
  (let ((let454 (ff.mul let450 let3)))
  (let ((let455 _14))
  (let ((let456 (ff.add let297 let455 let454)))
  (let ((let457 (ff.mul let455 let297)))
  (let ((let458 (= let457 let456)))
  (let ((let459 (ff.mul let455 let3)))
  (let ((let460 _13))
  (let ((let461 (ff.add let312 let460 let459)))
  (let ((let462 (ff.mul let460 let312)))
  (let ((let463 (= let462 let461)))
  (let ((let464 (ff.mul let460 let3)))
  (let ((let465 (ff.add let281 let320 let464)))
  (let ((let466 (ff.mul let320 let281)))
  (let ((let467 (= let466 let465)))
  (let ((let468 (ff.add let369 let316)))
  (let ((let469 (ff.mul let468 let468)))
  (let ((let470 (= let469 let259)))
  (let ((let471 (ff.mul let297 let293)))
  (let ((let472 (= let471 let253)))
  (let ((let473 (ff.mul let293 let293)))
  (let ((let474 (= let473 let293)))
  (let ((let475 (ff.mul let312 let312)))
  (let ((let476 (= let475 let312)))
  (let ((let477 (ff.mul let316 let316)))
  (let ((let478 (= let477 let316)))
  (let ((let479 (ff.mul let346 let346)))
  (let ((let480 (= let479 let346)))
  (let ((let481 (ff.mul let301 let301)))
  (let ((let482 (= let481 let301)))
  (let ((let483 (ff.mul let305 let305)))
  (let ((let484 (= let483 let305)))
  (let ((let485 (ff.mul let297 let297)))
  (let ((let486 (= let485 let297)))
  (let ((let487 (ff.mul let364 let364)))
  (let ((let488 (= let487 let364)))
  (let ((let489 (ff.mul let320 let320)))
  (let ((let490 (= let489 let320)))
  (let ((let491 (ff.mul let281 let281)))
  (let ((let492 (= let491 let281)))
  (let ((let493 (and let492 let490 let488 let486 let484 let482 let480 let478 let476 let474 let472 let470 let467 let463 let458 let453 let448 let443 let438 let433 let428 let423 let418 let413 let408 let403 let398 let393 let388 let382 let378 let375 let372 let368 let363 let354 let352 let348 let345 let342 let339 let335 let332 let329 let323 let319 let315 let311 let308 let304 let300 let296 let292 let286 let278 let270 let264 let256 let250)))
  (let ((let494 (= let248 let0)))
  (let ((let495 (not let494)))
  (let ((let496 (= let312 let66)))
  (let ((let497 (= let293 let47)))
  (let ((let498 (= let364 let118)))
  (let ((let499 (= let346 let100)))
  (let ((let500 (= let301 let55)))
  (let ((let501 (= let305 let59)))
  (let ((let502 (= let320 let74)))
  (let ((let503 (= let281 let35)))
  (let ((let504 (= let316 let70)))
  (let ((let505 (= let297 let51)))
  (let ((let506 (and let505 let504 let503 let502 let501 let500 let499 let498 let497 let496)))
  (let ((let507 (and let506 let495 let493 let247)))
  let507
))))))))))))))))))))))))))))))))))))))))))))))))))))))))))))))))))))))))))))))))))))))))))))))))))))))))))))))))))))))))))))))))))))))))))))))))))))))))))))))))))))))))))))))))))))))))))))))))))))))))))))))))))))))))))))))))))))))))))))))))))))))))))))))))))))))))))))))))))))))))))))))))))))))))))))))))))))))))))))))))))))))))))))))))))))))))))))))))))))))))))))))))))))))))))))))))))))))))))))))))))))))))))))))))))))))))))))))))))))))))))))))))))))))))))))))))))))))))))))))))))))))))))))))))))))))))))))
)
(check-sat)
